data/CVRPLIB/Vrp-Set-XML100/instances/XML100_2316_02.vrp
NAME : XML100_2316_02
COMMENT : Generated by Queiroga, Sadykov, Uchoa, and Vidal (2021)
TYPE : CVRP
DIMENSION : 101
EDGE_WEIGHT_TYPE : EUC_2D
CAPACITY : 29
NODE_COORD_SECTION
1    500  500 
2    216  617 
3    9    974 
4    768  895 
5    245  268 
6    426  324 
7    10   970 
8    265  936 
9    885  663 
10   237  306 
11   563  464 
12   226  737 
13   531  975 
14   0    970 
15   887  679 
16   888  729 
17   519  838 
18   232  327 
19   893  658 
20   978  445 
21   250  555 
22   734  627 
23   444  250 
24   522  965 
25   686  494 
26   792  385 
27   839  264 
28   365  292 
29   395  615 
30   344  467 
31   272  296 
32   823  502 
33   834  901 
34   336  332 
35   516  655 
36   822  677 
37   671  726 
38   8    264 
39   556  574 
40   215  225 
41   834  719 
42   325  322 
43   2    976 
44   183  389 
45   676  713 
46   818  332 
47   270  293 
48   884  21  
49   796  695 
50   593  866 
51   332  612 
52   458  160 
53   187  259 
54   765  998 
55   852  703 
56   523  748 
57   639  906 
58   911  845 
59   786  785 
60   998  729 
61   835  979 
62   57   373 
63   301  448 
64   721  594 
65   37   991 
66   962  813 
67   733  949 
68   717  903 
69   619  562 
70   868  724 
71   657  120 
72   520  186 
73   492  35  
74   826  694 
75   545  325 
76   843  689 
77   424  592 
78   29   923 
79   916  798 
80   106  313 
81   162  195 
82   27   959 
83   193  415 
84   38   72  
85   441  447 
86   342  81  
87   422  522 
88   928  710 
89   398  693 
90   63   980 
91   467  11  
92   447  395 
93   716  847 
94   969  238 
95   980  374 
96   561  686 
97   12   935 
98   356  305 
99   824  730 
100  817  323 
101  160  286 
DEMAND_SECTION
1    0   
2    1   
3    1   
4    1   
5    1   
6    1   
7    1   
8    1   
9    1   
10   1   
11   1   
12   1   
13   1   
14   1   
15   1   
16   1   
17   1   
18   1   
19   1   
20   1   
21   1   
22   1   
23   1   
24   1   
25   1   
26   1   
27   1   
28   1   
29   1   
30   1   
31   1   
32   1   
33   1   
34   1   
35   1   
36   1   
37   1   
38   1   
39   1   
40   1   
41   1   
42   1   
43   1   
44   1   
45   1   
46   1   
47   1   
48   1   
49   1   
50   1   
51   1   
52   1   
53   1   
54   1   
55   1   
56   1   
57   1   
58   1   
59   1   
60   1   
61   1   
62   1   
63   1   
64   1   
65   1   
66   1   
67   1   
68   1   
69   1   
70   1   
71   1   
72   1   
73   1   
74   1   
75   1   
76   1   
77   1   
78   1   
79   1   
80   1   
81   1   
82   1   
83   1   
84   1   
85   1   
86   1   
87   1   
88   1   
89   1   
90   1   
91   1   
92   1   
93   1   
94   1   
95   1   
96   1   
97   1   
98   1   
99   1   
100  1   
101  1   
DEPOT_SECTION
1
-1
EOF
