data/CVRPLIB/Vrp-Set-XML100/solutions/XML100_2316_02.sol
Route #1: 34 95 55 16 49 56 12 23 7 89 64 2 42 13 6 81 96 77 11 1 20 50 88 28 76
Route #2: 86 29 62 82 43 17 9 52 100 79 61 37 83 80 39 4 46 30 41 33 97 27 5 91 84
Route #3: 10 74 22 71 51 85 90 72 70 47 93 94 19 26 99 45 25 31 24 68 38
Route #4: 44 36 58 92 3 67 66 53 60 32 57 78 65 59 87 18 8 14 15 69 98 40 54 75 73 35 48 21 63
Cost 8430
